20 10
16 17 7 12 22 13 9 19 15 11
53 44 53 39 49 22 69 54 50 55
19 16 22 21 36 39 22 39 38 28
9 5 5 4 15 4 4 7 5 8
45 38 64 38 58 26 73 49 72 54
35 57 59 76 59 60 46 66 68 48
95 87 98 94 91 90 89 95 92 93
6 4 9 4 11 2 15 7 6 4
17 21 19 11 29 13 17 36 14 20
46 71 53 48 54 50 76 83 69 74
81 85 84 77 92 88 83 84 87 90
36 33 49 53 54 47 18 23 30 29
21 71 67 30 32 48 70 55 44 36
67 76 83 82 61 76 69 73 68 68
26 30 45 26 16 29 24 44 17 28
36 69 40 63 38 60 74 64 59 48
47 78 65 62 57 54 71 44 58 50
27 42 48 24 46 54 35 50 64 45
82 77 79 70 67 78 77 83 81 82
3 5 13 12 6 3 4 4 9 4
